# Mg-Si-O is pedone and coul/dsf
pair_style hybrid/overlay pedone 15.0 coul/dsf 0.05 15.0
# kspace_style pppm 1.0e-6 # ewald summation for long-range Coulombic interactions

pair_coeff *3 *3 coul/dsf 
pair_coeff 2 3 pedone 0.443427 1.758024 2.081625 1.0    # Si-O
pair_coeff 1 3 pedone 0.123583 2.045583 2.424824 5.0    # Mg-O
pair_coeff 3 3 pedone 0.042323 1.311417 3.762599 22.0   # O-O
